(set-logic QF_S)
(declare-fun x () String)
(declare-fun y () String)
(declare-fun z () Int)
(assert (not (= (str.replace (str.replace "B" x "") "B" x) (str.replace x "B" (str.replace "B" x "")))))
(check-sat)
